
Gurobi 10.0.1 (linux64) logging started Sat May 27 20:06:51 2023

Set parameter LogFile to value "logFiles/N-1L-B/N-1L-13U-10F-23V-120D/basic-05-27-2023, 20-06-H70-P50-O15.log"
Gurobi Optimizer version 10.0.1 build v10.0.1rc0 (linux64)

CPU model: Intel(R) Xeon(R) Gold 5115 CPU @ 2.40GHz, instruction set [SSE2|AVX|AVX2|AVX512]
Thread count: 20 physical cores, 40 logical processors, using up to 20 threads

Optimize a model with 59695 rows, 924038 columns and 4325903 nonzeros
Model fingerprint: 0xfd8c3786
Variable types: 216034 continuous, 708004 integer (708004 binary)
Coefficient statistics:
  Matrix range     [1e+00, 2e+05]
  Objective range  [4e+01, 3e+07]
  Bounds range     [1e+00, 1e+00]
  RHS range        [1e+00, 1e+06]
Presolve removed 27638 rows and 27591 columns (presolve time = 5s) ...
Presolve removed 27638 rows and 27591 columns (presolve time = 10s) ...
Presolve removed 27648 rows and 27836 columns (presolve time = 15s) ...
Presolve removed 27648 rows and 27836 columns (presolve time = 20s) ...
Presolve removed 27648 rows and 27836 columns (presolve time = 25s) ...
Presolve removed 27804 rows and 32135 columns (presolve time = 30s) ...
Presolve removed 27769 rows and 32100 columns
Presolve time: 30.94s
Presolved: 31926 rows, 891938 columns, 3796970 nonzeros
Variable types: 211321 continuous, 680617 integer (680617 binary)
Deterministic concurrent LP optimizer: primal simplex, dual simplex, and barrier
Showing barrier log only...

Root barrier log...

Ordering time: 1.08s

Barrier statistics:
 AA' NZ     : 2.076e+06
 Factor NZ  : 6.901e+06 (roughly 400 MB of memory)
 Factor Ops : 9.754e+09 (less than 1 second per iteration)
 Threads    : 17

                  Objective                Residual
Iter       Primal          Dual         Primal    Dual     Compl     Time
   0  -1.75836488e+16  5.10356564e+13  1.07e+09 4.77e+06  1.18e+12    40s
   1  -4.00759173e+15  5.49956053e+13  2.43e+08 8.82e+06  2.70e+11    40s
   2  -1.97780483e+15  5.06234121e+13  1.20e+08 5.83e+05  1.36e+11    41s
   3  -3.81649922e+13  3.33700465e+13  2.33e+06 5.80e-08  2.67e+09    41s
   4  -1.46467136e+13  1.36505779e+13  8.95e+05 9.24e-08  1.03e+09    42s
   5  -6.67890651e+12  1.24973604e+13  4.08e+05 3.64e-08  4.79e+08    42s
   6  -6.25312881e+12  1.24287799e+13  3.82e+05 2.98e-08  4.49e+08    42s
   7  -4.51428032e+12  1.15507486e+13  2.76e+05 5.13e-08  3.28e+08    43s
   8  -1.91069831e+12  1.08973971e+13  1.17e+05 5.22e-08  1.42e+08    43s
   9  -5.69829393e+11  9.32049713e+12  3.48e+04 5.47e-08  4.51e+07    43s
  10  -4.27583010e+11  7.74285976e+12  2.62e+04 7.64e-08  3.28e+07    44s
  11  -2.47683639e+11  5.94728894e+12  1.52e+04 3.35e-08  1.88e+07    44s
  12  -1.53571464e+11  4.51671807e+12  9.47e+03 3.54e-08  1.15e+07    44s
  13  -1.06334283e+11  3.12811345e+12  6.59e+03 2.30e-08  7.50e+06    45s
  14  -7.75062652e+10  2.30108296e+12  4.83e+03 1.49e-07  5.24e+06    45s
  15  -3.88815605e+10  9.70854185e+11  2.48e+03 4.77e-07  2.32e+06    45s
  16  -4.25656870e+09  4.78038559e+11  3.73e+02 4.77e-07  5.04e+05    46s
  17  -3.17333929e+08  2.07555238e+11  1.33e+02 3.31e-08  1.88e+05    46s
  18   1.44328569e+08  1.29545497e+11  1.05e+02 3.21e-07  1.26e+05    47s
  19   1.06091589e+09  9.86159495e+10  4.91e+01 2.34e-07  7.94e+04    47s
  20   1.48045969e+09  7.18769479e+10  2.40e+01 2.49e-07  5.15e+04    48s
  21   1.59978336e+09  6.29748998e+10  1.72e+01 2.62e-07  4.32e+04    48s
  22   1.62947508e+09  5.49729861e+10  1.55e+01 2.83e-07  3.81e+04    48s
  23   1.65723321e+09  4.92459350e+10  1.41e+01 4.76e-07  3.43e+04    49s
  24   1.71863072e+09  3.84545277e+10  1.08e+01 4.73e-07  2.68e+04    49s
  25   1.74794290e+09  2.89767786e+10  9.41e+00 5.18e-07  2.10e+04    49s
  26   1.79269182e+09  2.34351722e+10  7.44e+00 5.26e-07  1.69e+04    50s
  27   1.83138323e+09  2.02389640e+10  5.59e+00 5.80e-07  1.40e+04    51s
  28   1.84526082e+09  1.76163948e+10  5.21e+00 5.80e-07  1.23e+04    51s
  29   1.87328829e+09  1.54115967e+10  4.19e+00 8.81e-07  1.04e+04    52s
  30   1.89011169e+09  1.38305641e+10  3.71e+00 8.15e-07  9.26e+03    52s
  31   1.90357910e+09  1.20917033e+10  3.32e+00 8.13e-07  8.01e+03    53s
  32   1.92827404e+09  1.06450158e+10  2.66e+00 7.07e-07  6.58e+03    53s
  33   1.94687215e+09  8.67248971e+09  2.29e+00 5.00e-07  5.10e+03    54s
  34   1.97212822e+09  7.68182224e+09  1.96e+00 5.67e-07  4.25e+03    54s
  35   2.00028020e+09  7.11703573e+09  1.58e+00 5.44e-07  3.66e+03    55s
  36   2.04463118e+09  5.75676251e+09  1.11e+00 4.98e-07  2.55e+03    55s
  37   2.05829053e+09  4.99819262e+09  9.34e-01 5.38e-07  1.99e+03    56s
  38   2.08985721e+09  4.49101822e+09  6.23e-01 4.32e-07  1.55e+03    56s
  39   2.10179105e+09  3.46546848e+09  5.38e-01 6.17e-07  8.88e+02    57s
  40   2.12983925e+09  2.90606295e+09  3.32e-01 4.01e-07  4.94e+02    57s
  41   2.16132930e+09  2.64815333e+09  2.02e-01 4.96e-07  3.02e+02    58s
  42   2.16900727e+09  2.61779561e+09  1.83e-01 4.42e-07  2.77e+02    58s
  43   2.18631713e+09  2.57638405e+09  1.42e-01 4.09e-07  2.38e+02    58s
  44   2.19063373e+09  2.56009684e+09  1.34e-01 3.07e-07  2.25e+02    59s
  45   2.19362053e+09  2.54979147e+09  1.30e-01 5.41e-07  2.17e+02    59s
  46   2.19551864e+09  2.51061499e+09  1.27e-01 5.00e-07  1.93e+02    59s
  47   2.20129249e+09  2.46147077e+09  1.17e-01 6.86e-07  1.60e+02    60s
  48   2.21073356e+09  2.44205577e+09  1.02e-01 4.68e-07  1.42e+02    60s
  49   2.21483954e+09  2.42979536e+09  9.47e-02 5.38e-07  1.31e+02    61s
  50   2.21614700e+09  2.42675622e+09  9.26e-02 6.24e-07  1.29e+02    61s
  51   2.21710508e+09  2.41894943e+09  9.10e-02 6.39e-07  1.23e+02    62s
  52   2.22524096e+09  2.40701362e+09  7.70e-02 7.10e-07  1.10e+02    62s
  53   2.22736963e+09  2.39214574e+09  7.41e-02 5.21e-07  1.00e+02    63s
  54   2.23204949e+09  2.37769944e+09  6.79e-02 5.40e-07  8.85e+01    63s
  55   2.23630141e+09  2.36565075e+09  6.17e-02 5.18e-07  7.85e+01    64s
  56   2.23750737e+09  2.35915613e+09  5.98e-02 6.42e-07  7.39e+01    64s
  57   2.23885184e+09  2.35566636e+09  5.77e-02 5.97e-07  7.10e+01    65s
  58   2.23940707e+09  2.35089950e+09  5.69e-02 6.64e-07  6.78e+01    65s
  59   2.24301112e+09  2.34477471e+09  5.20e-02 7.30e-07  6.18e+01    66s
  60   2.24540923e+09  2.34071215e+09  4.87e-02 6.14e-07  5.78e+01    66s
  61   2.24669883e+09  2.33525053e+09  4.67e-02 5.12e-07  5.37e+01    67s
  62   2.25107524e+09  2.33008840e+09  3.98e-02 6.23e-07  4.78e+01    67s
  63   2.25212590e+09  2.32925010e+09  3.86e-02 5.09e-07  4.66e+01    68s
  64   2.25474294e+09  2.32374563e+09  3.52e-02 5.06e-07  4.16e+01    68s
  65   2.25491544e+09  2.32341065e+09  3.49e-02 6.35e-07  4.13e+01    68s
  66   2.25672461e+09  2.32289831e+09  3.27e-02 6.97e-07  3.98e+01    69s
  67   2.26041712e+09  2.32011775e+09  2.83e-02 5.35e-07  3.58e+01    69s
  68   2.26271002e+09  2.31732415e+09  2.59e-02 4.74e-07  3.27e+01    70s
  69   2.26332801e+09  2.31553693e+09  2.53e-02 6.13e-07  3.13e+01    70s
  70   2.26474976e+09  2.31118060e+09  2.34e-02 5.17e-07  2.78e+01    71s
  71   2.26519186e+09  2.30984432e+09  2.28e-02 5.47e-07  2.68e+01    71s
  72   2.26775707e+09  2.30616432e+09  1.94e-02 5.18e-07  2.30e+01    72s
  73   2.26872005e+09  2.30606620e+09  1.83e-02 5.78e-07  2.23e+01    72s
  74   2.27148930e+09  2.30484875e+09  1.51e-02 4.83e-07  1.98e+01    73s
  75   2.27241952e+09  2.30350090e+09  1.42e-02 5.50e-07  1.85e+01    73s
  76   2.27309302e+09  2.30258651e+09  1.35e-02 6.18e-07  1.75e+01    74s
  77   2.27358662e+09  2.30189513e+09  1.30e-02 5.78e-07  1.68e+01    74s
  78   2.27410624e+09  2.30025169e+09  1.25e-02 4.98e-07  1.56e+01    75s
  79   2.27545260e+09  2.29954766e+09  1.13e-02 7.32e-07  1.43e+01    75s
  80   2.27846582e+09  2.29869189e+09  8.50e-03 6.64e-07  1.19e+01    76s
  81   2.27970705e+09  2.29766845e+09  7.52e-03 6.61e-07  1.06e+01    76s
  82   2.28003276e+09  2.29704245e+09  7.26e-03 8.21e-07  1.01e+01    77s
  83   2.28057831e+09  2.29661347e+09  6.85e-03 8.85e-07  9.47e+00    77s
  84   2.28246513e+09  2.29508170e+09  5.48e-03 6.77e-07  7.46e+00    78s
  85   2.28429432e+09  2.29466466e+09  4.22e-03 7.74e-07  6.11e+00    78s
  86   2.28508216e+09  2.29339764e+09  3.71e-03 6.68e-07  4.92e+00    79s
  87   2.28640901e+09  2.29305935e+09  2.85e-03 5.87e-07  3.92e+00    79s
  88   2.28666941e+09  2.29291793e+09  2.67e-03 8.26e-07  3.69e+00    80s
  89   2.28764271e+09  2.29223236e+09  2.02e-03 3.71e-07  2.71e+00    80s
  90   2.28880673e+09  2.29183371e+09  1.27e-03 4.68e-07  1.79e+00    81s
  91   2.28941397e+09  2.29166935e+09  8.75e-04 4.27e-07  1.33e+00    81s
  92   2.28965933e+09  2.29135774e+09  7.17e-04 5.24e-07  1.00e+00    82s
  93   2.28985694e+09  2.29129084e+09  5.97e-04 5.16e-07  8.45e-01    82s
  94   2.29007249e+09  2.29126401e+09  4.65e-04 5.55e-07  7.00e-01    83s
  95   2.29029143e+09  2.29114940e+09  3.29e-04 6.14e-07  5.04e-01    83s
  96   2.29048620e+09  2.29102245e+09  2.09e-04 4.39e-07  3.15e-01    84s
  97   2.29062740e+09  2.29094243e+09  1.24e-04 3.67e-07  1.85e-01    84s
  98   2.29069073e+09  2.29085479e+09  8.47e-05 6.48e-07  9.81e-02    85s
  99   2.29072932e+09  2.29085162e+09  6.11e-05 4.96e-07  7.30e-02    85s
 100   2.29076837e+09  2.29085071e+09  3.90e-05 7.34e-07  4.90e-02    85s
 101   2.29081225e+09  2.29084458e+09  1.39e-05 3.69e-07  1.91e-02    86s
 102   2.29082611e+09  2.29083965e+09  6.10e-06 4.67e-07  8.04e-03    86s
 103   2.29082872e+09  2.29083779e+09  4.68e-06 5.84e-07  5.44e-03    86s
 104   2.29083401e+09  2.29083748e+09  1.73e-06 5.05e-07  2.08e-03    87s
 105   2.29083647e+09  2.29083735e+09  6.14e-07 4.87e-07  5.26e-04    87s
 106   2.29083713e+09  2.29083730e+09  1.08e-07 3.87e-07  9.67e-05    88s
 107   2.29083729e+09  2.29083729e+09  2.80e-08 6.57e-07  1.34e-06    88s
 108   2.29083729e+09  2.29083729e+09  2.60e-09 4.77e-07  2.32e-10    88s

Barrier solved model in 108 iterations and 88.36 seconds (72.16 work units)
Optimal objective 2.29083729e+09


Root crossover log...

   27622 DPushes remaining with DInf 0.0000000e+00                89s
       0 DPushes remaining with DInf 0.0000000e+00                89s

    1019 PPushes remaining with PInf 0.0000000e+00                89s
     114 PPushes remaining with PInf 0.0000000e+00                89s

  Push phase complete: Pinf 0.0000000e+00, Dinf 8.1528205e+01     89s


Root simplex log...

Iteration    Objective       Primal Inf.    Dual Inf.      Time
   28438    2.2902126e+09   2.234518e+06   0.000000e+00     89s
   28548    2.2902126e+09   8.784701e+03   0.000000e+00     91s
   28805    2.2908373e+09   0.000000e+00   0.000000e+00     94s
Concurrent spin time: 0.02s

Solved with barrier
   28856    2.2908373e+09   0.000000e+00   0.000000e+00     94s
Extra simplex iterations after uncrush: 51

Root relaxation: objective 2.290837e+09, 28856 iterations, 60.12 seconds (40.54 work units)
Total elapsed time = 95.37s

    Nodes    |    Current Node    |     Objective Bounds      |     Work
 Expl Unexpl |  Obj  Depth IntInf | Incumbent    BestBd   Gap | It/Node Time

     0     0 2.2908e+09    0  270          - 2.2908e+09      -     -   98s
     0     0 2.2908e+09    0  270          - 2.2908e+09      -     -   99s
     0     0 2.2908e+09    0  270          - 2.2908e+09      -     -   99s
     0     0 2.2908e+09    0  270          - 2.2908e+09      -     -  100s
     0     0 2.2908e+09    0  270          - 2.2908e+09      -     -  101s
     0     0 2.2908e+09    0  266          - 2.2908e+09      -     -  103s
     0     0 2.2908e+09    0  266          - 2.2908e+09      -     -  103s
     0     0 2.2908e+09    0  266          - 2.2908e+09      -     -  103s
     0     0 2.2908e+09    0  266          - 2.2908e+09      -     -  104s
     0     0 2.2908e+09    0  266          - 2.2908e+09      -     -  104s
     0     0 2.2908e+09    0  266          - 2.2908e+09      -     -  105s
H    0     0                    2.261774e+09 2.2908e+09  1.28%     -  130s
H    0     0                    2.273784e+09 2.2908e+09  0.75%     -  242s

Explored 1 nodes (37672 simplex iterations) in 242.24 seconds (202.27 work units)
Thread count was 20 (of 40 available processors)

Solution count 2: 2.27378e+09 2.26177e+09 

Optimal solution found (tolerance 1.00e-02)
Best objective 2.273784444604e+09, best bound 2.290836873535e+09, gap 0.7500%
Gurobi Optimizer version 10.0.1 build v10.0.1rc0 (linux64)

CPU model: Intel(R) Xeon(R) Gold 5115 CPU @ 2.40GHz, instruction set [SSE2|AVX|AVX2|AVX512]
Thread count: 20 physical cores, 40 logical processors, using up to 20 threads

Optimize a model with 66518 rows, 939572 columns and 4132319 nonzeros
Model fingerprint: 0xffc2129d
Variable types: 1879 continuous, 937693 integer (937693 binary)
Coefficient statistics:
  Matrix range     [1e+00, 2e+05]
  Objective range  [4e+01, 3e+07]
  Bounds range     [1e+00, 3e+05]
  RHS range        [1e+00, 1e+06]
Presolve removed 62433 rows and 884648 columns
Presolve time: 2.01s
Presolved: 4085 rows, 54924 columns, 182424 nonzeros
Variable types: 775 continuous, 54149 integer (54149 binary)
Found heuristic solution: objective 1.110439e+09
Deterministic concurrent LP optimizer: primal and dual simplex
Showing first log only...


Root simplex log...

Iteration    Objective       Primal Inf.    Dual Inf.      Time
   31933    2.0281980e+09   0.000000e+00   3.489137e+07      5s
Concurrent spin time: 0.34s

Solved with dual simplex

Root simplex log...

Iteration    Objective       Primal Inf.    Dual Inf.      Time
   19369    2.0255033e+09   0.000000e+00   0.000000e+00      5s
Extra simplex iterations after uncrush: 408

Root relaxation: objective 2.025503e+09, 19369 iterations, 2.57 seconds (2.87 work units)

    Nodes    |    Current Node    |     Objective Bounds      |     Work
 Expl Unexpl |  Obj  Depth IntInf | Incumbent    BestBd   Gap | It/Node Time

     0     0 2.0255e+09    0  105 1.1104e+09 2.0255e+09  82.4%     -    5s
H    0     0                    2.019546e+09 2.0255e+09  0.30%     -    5s

Explored 1 nodes (20283 simplex iterations) in 5.52 seconds (5.33 work units)
Thread count was 20 (of 40 available processors)

Solution count 2: 2.01955e+09 1.11044e+09 

Optimal solution found (tolerance 1.00e-02)
Best objective 2.019545546190e+09, best bound 2.025503274735e+09, gap 0.2950%
